c Random 4-CNF over 6 variables and 5 clauses
c Generated with `cnfgen`
c (C) 2012-2018 Massimo Lauria <lauria.massimo@gmail.com>
c https://massimolauria.github.io/cnfgen
c
c COMMAND LINE: cnfgen randkcnf 4 6 5
c
p cnf 6 5
2 4 -5 -6 0
2 3 5 6 0
1 -2 -3 -6 0
1 -4 5 6 0
-1 -2 5 6 0
